Optimal - objective value 27681.00000000
      4 x_0_4                    1                       0
      7 x_1_0                    1                       0
     16 x_2_2                    1                       0
     26 x_3_5                    1                       0
     31 x_4_3                    1                       0
     41 x_5_6                    1                       0
     43 x_6_1                    1                       0
    193 y_0_4_1_0                1                     784
    201 y_0_4_2_2                1                     114
    209 y_0_4_3_5                1                    2100
    214 y_0_4_4_3                1                     801
    222 y_0_4_5_6                1                    1920
    224 y_0_4_6_1                1                    1053
    302 y_1_0_2_2                1                    1886
    311 y_1_0_3_5                1                    1634
    315 y_1_0_4_3                1                     360
    324 y_1_0_5_6                1                    1209
    325 y_1_0_6_1                1                      74
    563 y_2_2_3_5                1                    2124
    567 y_2_2_4_3                1                    1320
    576 y_2_2_5_6                1                    1001
    578 y_2_2_6_1                1                    1288
    772 y_3_5_4_3                1                     899
    780 y_3_5_5_6                1                    1716
    782 y_3_5_6_1                1                    1599
    846 y_4_3_5_6                1                    3094
    848 y_4_3_6_1                1                    1550
    926 y_5_6_6_1                1                    1155
